This is Ipopt version 3.13.4, running with linear solver ma27.

Number of nonzeros in equality constraint Jacobian...:  1720009
Number of nonzeros in inequality constraint Jacobian.:        0
Number of nonzeros in Lagrangian Hessian.............:   800006

Total number of variables............................:   520009
                     variables with only lower bounds:        0
                variables with lower and upper bounds:        0
                     variables with only upper bounds:        0
Total number of equality constraints.................:   360009
Total number of inequality constraints...............:        0
        inequality constraints with only lower bounds:        0
   inequality constraints with lower and upper bounds:        0
        inequality constraints with only upper bounds:        0

iter    objective    inf_pr   inf_du lg(mu)  ||d||  lg(rg) alpha_du alpha_pr  ls
   0  7.6867677e+04 9.80e-02 1.00e+02  -1.0 0.00e+00    -  0.00e+00 0.00e+00   0
   1  2.3724762e+05 4.53e-06 3.16e+04  -1.0 1.03e+01    -  1.00e+00 1.00e+00h  1
   2  2.3724308e+05 3.45e-13 1.13e+00  -1.0 1.13e-04   4.0 1.00e+00 1.00e+00f  1
   3  1.9183266e+05 8.65e-06 3.37e-03  -1.0 2.25e+00    -  1.00e+00 1.00e+00f  1
   4  1.9183270e+05 6.27e-10 1.46e-07  -3.8 1.44e-03    -  1.00e+00 1.00e+00h  1
   5  1.9183270e+05 6.25e-16 7.11e-15  -8.6 1.22e-07    -  1.00e+00 1.00e+00h  1

Number of Iterations....: 5

                                   (scaled)                 (unscaled)
Objective...............:   9.5913952961202609e+04    1.9183270162005330e+05
Dual infeasibility......:   7.1054273576010019e-15    1.4211209986569883e-14
Constraint violation....:   6.2450045135165055e-16    6.2450045135165055e-16
Complementarity.........:   0.0000000000000000e+00    0.0000000000000000e+00
Overall NLP error.......:   7.1054273576010019e-15    1.4211209986569883e-14


Number of objective function evaluations             = 6
Number of objective gradient evaluations             = 6
Number of equality constraint evaluations            = 6
Number of inequality constraint evaluations          = 0
Number of equality constraint Jacobian evaluations   = 6
Number of inequality constraint Jacobian evaluations = 0
Number of Lagrangian Hessian evaluations             = 5
Total CPU secs in IPOPT (w/o function evaluations)   =      3.776
Total CPU secs in NLP function evaluations           =      0.314

EXIT: Optimal Solution Found.
